RT is False
Default write of storage_offers_DA.csv just to have a file (but constraint should be inactive)
Reading model...
...model read.
creating competitive generators file...
...competitive generators recorded.
Loading data...
.. day-ahead data with real-time VRE data read.
Compiling instance...
...instance created.
Creating Offer Mitigation (model will solve as dispatch if TRUE)...
NOTE: storage offers will not be mitigated
...storage offer mitigation file created
Converting model to MPEC...
...converted
NOTE: initial MIP solve with only storage competitive to get feasible solution
Solving...

Welcome to IBM(R) ILOG(R) CPLEX(R) Interactive Optimizer 12.9.0.0
  with Simplex, Mixed Integer & Barrier Optimizers
5725-A06 5725-A29 5724-Y48 5724-Y49 5724-Y54 5724-Y55 5655-Y21
Copyright IBM Corp. 1988, 2019.  All Rights Reserved.

Type 'help' for a list of available commands.
Type 'help' followed by a command name for more
information on commands.

CPLEX> Logfile 'cplex.log' closed.
Logfile 'C:\Users\llavin\Desktop\test826\logs\tmpoxxad4ju.cplex.log' open.
CPLEX> New value for parallel optimization mode: -1
CPLEX> New value for emphasis for MIP optimization: 1
CPLEX> New value for mixed integer optimality gap tolerance: 0.01
CPLEX> New value for integrality tolerance: 1e-12
CPLEX> New value for deterministic time limit in ticks: 75000
CPLEX> Problem 'C:\Users\llavin\Desktop\test826\logs\tmporac8bu2.pyomo.lp' read.
Read time = 0.23 sec. (13.92 ticks)
CPLEX> Problem name         : C:\Users\llavin\Desktop\test826\logs\tmporac8bu2.pyomo.lp
Objective sense      : Maximize
Variables            :   53809  [Nneg: 1,  Box: 22004,  Free: 4464,
                                 Binary: 27340]
Objective nonzeros   :    9036
Linear constraints   :  123253  [Less: 41346,  Greater: 59096,  Equal: 22811]
  Nonzeros           :  293224
  RHS nonzeros       :   67498

Variables            : Min LB: -5000.000        Max UB: 1000000.       
Objective nonzeros   : Min   : 0.01666667       Max   : 2500.000       
Linear constraints   :
  Nonzeros           : Min   : 0.01666667       Max   : 1000000.       
  RHS nonzeros       : Min   : 0.01666667       Max   : 1000000.       
CPLEX> CPXPARAM_Parallel                                -1
CPXPARAM_Emphasis_MIP                            1
CPXPARAM_DetTimeLimit                            75000
CPXPARAM_MIP_Tolerances_MIPGap                   0.01
CPXPARAM_MIP_Tolerances_Integrality              9.9999999999999998e-13
Tried aggregator 4 times.
MIP Presolve eliminated 88645 rows and 18953 columns.
MIP Presolve added 3386 rows and 0 columns.
MIP Presolve modified 24863 coefficients.
Aggregator did 13008 substitutions.
Reduced MIP has 24986 rows, 21297 columns, and 71888 nonzeros.
Reduced MIP has 8424 binaries, 0 generals, 0 SOSs, and 0 indicators.
Presolve time = 0.33 sec. (192.71 ticks)
Probing fixed 370 vars, tightened 3886 bounds.
Probing time = 0.06 sec. (18.59 ticks)
Tried aggregator 2 times.
MIP Presolve eliminated 837 rows and 740 columns.
MIP Presolve modified 3042 coefficients.
Aggregator did 24 substitutions.
Reduced MIP has 24125 rows, 20533 columns, and 69402 nonzeros.
Reduced MIP has 8054 binaries, 0 generals, 0 SOSs, and 0 indicators.
Presolve time = 0.11 sec. (88.13 ticks)
Probing fixed 0 vars, tightened 230 bounds.
Probing time = 0.16 sec. (22.30 ticks)
Clique table members: 45240.
MIP emphasis: integer feasibility.
MIP search method: dynamic search.
Parallel mode: opportunistic, using up to 32 threads.
Root relaxation solution time = 0.39 sec. (575.40 ticks)

        Nodes                                         Cuts/
   Node  Left     Objective  IInf  Best Integer    Best Bound    ItCnt     Gap

      0     0        0.0000    69                      0.0000     4821         
*     0+    0                            0.0000        0.0000             0.00%
      0     0        cutoff              0.0000        0.0000     4821    0.00%
Elapsed time = 1.67 sec. (1275.85 ticks, tree = 0.01 MB, solutions = 1)

Root node processing (before b&c):
  Real time             =    1.69 sec. (1277.80 ticks)
Parallel b&c, 32 threads:
  Real time             =    0.00 sec. (0.00 ticks)
  Sync time (average)   =    0.00 sec.
  Wait time (average)   =    0.00 sec.
                          ------------
Total (root+branch&cut) =    1.69 sec. (1277.80 ticks)

Solution pool: 1 solution saved.

MIP - Integer optimal solution:  Objective =  1.6771082301e-09
Solution time =    1.72 sec.  Iterations = 4821  Nodes = 0
Deterministic time = 1277.95 ticks  (743.43 ticks/sec)

CPLEX> Incumbent solution written to file 'C:\Users\llavin\Desktop\test826\logs\tmpckliujlq.cplex.sol'.
CPLEX> NOTE: no warmstart specified for MIP iteration, default behavior is true
NOTE: resolving with all competitive generators using storage-only solution to warmstart
Solving...

Welcome to IBM(R) ILOG(R) CPLEX(R) Interactive Optimizer 12.9.0.0
  with Simplex, Mixed Integer & Barrier Optimizers
5725-A06 5725-A29 5724-Y48 5724-Y49 5724-Y54 5724-Y55 5655-Y21
Copyright IBM Corp. 1988, 2019.  All Rights Reserved.

Type 'help' for a list of available commands.
Type 'help' followed by a command name for more
information on commands.

CPLEX> Logfile 'cplex.log' closed.
Logfile 'C:\Users\llavin\Desktop\test826\logs\tmp6n5nnu9v.cplex.log' open.
CPLEX> New value for parallel optimization mode: -1
CPLEX> New value for emphasis for MIP optimization: 1
CPLEX> New value for mixed integer optimality gap tolerance: 0.01
CPLEX> New value for integrality tolerance: 1e-12
CPLEX> New value for deterministic time limit in ticks: 75000
CPLEX> Problem 'C:\Users\llavin\Desktop\test826\logs\tmp7gwmvs7z.pyomo.lp' read.
Read time = 0.23 sec. (13.94 ticks)
CPLEX> MIP start file 'C:\Users\llavin\Desktop\test826\logs\tmp_8winhl3.cplex.mst' read.
CPLEX> Problem name         : C:\Users\llavin\Desktop\test826\logs\tmp7gwmvs7z.pyomo.lp
Objective sense      : Maximize
Variables            :   54529  [Nneg: 1,  Box: 22724,  Free: 4464,
                                 Binary: 27340]
Objective nonzeros   :    9732
Linear constraints   :  123253  [Less: 41346,  Greater: 59096,  Equal: 22811]
  Nonzeros           :  293224
  RHS nonzeros       :   67498

Variables            : Min LB: -5000.000        Max UB: 1000000.       
Objective nonzeros   : Min   : 0.01666667       Max   : 2500.000       
Linear constraints   :
  Nonzeros           : Min   : 0.01666667       Max   : 1000000.       
  RHS nonzeros       : Min   : 0.01666667       Max   : 1000000.       
CPLEX> CPXPARAM_Parallel                                -1
CPXPARAM_Emphasis_MIP                            1
CPXPARAM_DetTimeLimit                            75000
CPXPARAM_MIP_Tolerances_MIPGap                   0.01
CPXPARAM_MIP_Tolerances_Integrality              9.9999999999999998e-13
Warning:  No solution found from 1 MIP starts.
Retaining values of one MIP start for possible repair.
Tried aggregator 4 times.
MIP Presolve eliminated 88645 rows and 19673 columns.
MIP Presolve added 3386 rows and 0 columns.
MIP Presolve modified 24863 coefficients.
Aggregator did 13008 substitutions.
Reduced MIP has 24986 rows, 21297 columns, and 71888 nonzeros.
Reduced MIP has 8424 binaries, 0 generals, 0 SOSs, and 0 indicators.
Presolve time = 0.33 sec. (193.12 ticks)
Probing fixed 370 vars, tightened 3886 bounds.
Probing time = 0.08 sec. (18.59 ticks)
Tried aggregator 2 times.
MIP Presolve eliminated 837 rows and 740 columns.
MIP Presolve modified 3042 coefficients.
Aggregator did 24 substitutions.
Reduced MIP has 24125 rows, 20533 columns, and 69402 nonzeros.
Reduced MIP has 8054 binaries, 0 generals, 0 SOSs, and 0 indicators.
Presolve time = 0.11 sec. (88.13 ticks)
Probing fixed 0 vars, tightened 230 bounds.
Probing time = 0.16 sec. (22.30 ticks)
Clique table members: 45240.
MIP emphasis: integer feasibility.
MIP search method: dynamic search.
Parallel mode: opportunistic, using up to 32 threads.
Root relaxation solution time = 0.47 sec. (649.18 ticks)

        Nodes                                         Cuts/
   Node  Left     Objective  IInf  Best Integer    Best Bound    ItCnt     Gap

      0     0   120347.4859   314                 120347.4859     5661         
      0     0   116540.8027   222                   Cuts: 149     5912         
      0     0   115560.3129   192                    Cuts: 97     6041         
      0     0   115511.1221   183                    Cuts: 12     6056         
Repair heuristic found nothing.
      0     2   115511.1221   183                    Cuts: 17     6056         
Elapsed time = 4.55 sec. (1930.71 ticks, tree = 0.02 MB, solutions = 0)
    568   436    infeasible                       112199.3207    12386         
    972   673    49644.8066   172                 112199.3207    19677         
   1569   950   -15764.4560    56                 112199.3207    29760         
   2220  1515   -19018.0197    40                 112051.0235    39911         
   2763  1713    infeasible                       112051.0235    47976         
   3352  2095    63326.5440   101                 112051.0235    60225         
   3973  2352    infeasible                       112051.0235    74655         
   4515  2885    63644.8471    91                 112051.0235   105890         
   5075  2699    59095.2820    82                 112051.0235    94824         
   7414  4358   -49413.9745    59                 112051.0235   156391         
Elapsed time = 21.28 sec. (5034.82 ticks, tree = 108.01 MB, solutions = 0)
   9664  5805    60370.0710    97                 111160.8079   247335         
  11745  7151    51204.7847    89                 109305.7181   324231         
  13864  8171   -38736.5428    50                 105699.8261   381628         
  16083  9355    -2019.4729    95                 101778.4812   428366         
  18393 11536    infeasible                        88313.5315   520942         
  20666 12114   -31622.7382    79                  88313.5315   549232         
  22974 14671    infeasible                        88313.5315   641974         
  25474 16005    infeasible                        88313.5315   690778         
  27892 17101    39448.3033    91                  88313.5315   734342         
  30305 19336    32109.1571    70                  80686.0234   826902         
Elapsed time = 71.58 sec. (14575.62 ticks, tree = 307.14 MB, solutions = 0)
  32943 19770    17298.4685    86                  80686.0234   839846         
  35463 21412  -402535.5469   101                  80686.0234   900720         
  37888 22789  -107787.9305    90                  80686.0234   960207         
  40498 24043  -283902.6171   106                  80686.0234  1025343         
  43152 24883   -26476.3803    98                  80686.0234  1067906         
  45595 26666   -65385.5328    85                  80686.0234  1154403         
  48009 27333    infeasible                        80686.0234  1188322         
  50381 28088    11349.1687    68                  80686.0234  1231905         
  52820 29621    infeasible                        80686.0234  1308968         
  55038 30270    -4073.2183    78                  80686.0234  1348972         
Elapsed time = 119.91 sec. (24117.27 ticks, tree = 379.01 MB, solutions = 0)
  57175 31125   -69456.4812    37                  80686.0234  1396242         
  59464 31676   -28344.3204    76                  80686.0234  1436810         
  61851 32948    infeasible                        80686.0234  1498162         
  64383 34456  -160956.2659    83                  80686.0234  1589479         
  66748 35212  -396345.1533    79                  80686.0234  1627515         
  69173 36087    35956.1187    93                  80686.0234  1675905         
  71513 36778    21998.4317    79                  80686.0234  1704954         
  74097 39432  -361219.0401    68                  80686.0234  1859193         
  76700 38664    39914.6444    74                  80686.0234  1813298         
  79034 39778  -174933.0828    80                  80686.0234  1875126         
Elapsed time = 167.19 sec. (33657.44 ticks, tree = 441.14 MB, solutions = 0)
  81308 41232    infeasible                        80686.0234  1973203         
  83619 42365    infeasible                        80686.0234  2042921         
  86038 43550  -208068.7710    67                  80686.0234  2128146         
  88584 44169   -82960.9869    65                  80686.0234  2164393         
  91206 45363   -46494.0095    69                  80686.0234  2229085         
  93556 46255   -34136.9352    75                  80686.0234  2285552         
  95891 47245   -25956.9024    81                  80686.0234  2344142         
  98246 48630    -4986.7024    65                  80686.0234  2427567         
 100500 49603  -196331.7290   116                  80686.0234  2474889         
 102766 50330    infeasible                        80686.0234  2528716         
Elapsed time = 214.59 sec. (43199.20 ticks, tree = 510.71 MB, solutions = 0)
 105276 52032  -127402.2130    65                  80686.0234  2645277         
 107616 52262    infeasible                        80686.0234  2661602         
 110079 53215  -109712.5527    69                  80686.0234  2732564         
 112585 53818  -261972.2504   106                  80686.0234  2794397         
 115114 54148    infeasible                        80686.0234  2825223         
 117556 54915    infeasible                        80686.0234  2880403         
 119695 56366     5847.2098    90                  80686.0234  3006394         
 121893 57529   -35603.8665    52                  80686.0234  3144771         
 124301 57280    infeasible                        80686.0234  3109894         
 126825 58136   -26094.0686    94                  80686.0234  3206542         
Elapsed time = 260.59 sec. (52739.45 ticks, tree = 553.05 MB, solutions = 0)
 129307 58380    39895.8849   103                  80686.0234  3239520         
 131656 60559    26750.6545    93                  80686.0234  3426415         
 134101 59543    infeasible                        80686.0234  3340921         
 136256 61579  -136616.0173    83                  80686.0234  3490135         
 138356 61855  -405976.9338   119                  80686.0234  3519362         
 140516 65311  -701311.2738    85                  80686.0234  3780723         
 142499 63695  -125793.7609    73                  80686.0234  3662218         
 144294 65463   -78318.2616    71                  80686.0234  3799615         
 146141 66815    infeasible                        80686.0234  3932106         
 147803 67691    infeasible                        80686.0234  4032041         
Elapsed time = 303.58 sec. (62279.49 ticks, tree = 622.68 MB, solutions = 0)
 149651 68483  -346172.4384   143                  80686.0234  4098621         
 151446 67870  -223286.8039   101                  80686.0234  4049718         
 153174 69689   -71479.3756   124                  80686.0234  4244775         
 154979 69254 -1046803.0443   121                  80686.0234  4195208         
 156613 71071 -3843193.1753    93                  80686.0234  4398957         
 158455 70772  -434292.8410    52                  80686.0234  4366208         
 160390 72381   -40843.6376    69                  80686.0234  4592082         
 162349 72960  -613029.2435   110                  80686.0234  4663509         
 164285 73431    26874.5012    89                  80686.0234  4728658         
 166492 73383    infeasible                        80686.0234  4717006         
Elapsed time = 344.92 sec. (71824.15 ticks, tree = 673.61 MB, solutions = 0)
 168651 75018    infeasible                        80686.0234  4974235         
 170163 75028  -222671.0743    71                  80686.0234  4979389         
 171768 75052    infeasible                        80686.0234  4982277         

Cover cuts applied:  76
Implied bound cuts applied:  11
Flow cuts applied:  187
Mixed integer rounding cuts applied:  6
Gomory fractional cuts applied:  2

Root node processing (before b&c):
  Real time             =    2.75 sec. (1880.49 ticks)
Parallel b&c, 32 threads:
  Real time             =  349.94 sec. (73156.37 ticks)
  Sync time (average)   =    1.62 sec.
  Wait time (average)   =    0.00 sec.
                          ------------
Total (root+branch&cut) =  352.69 sec. (75036.86 ticks)


MIP - Deterministic time limit exceeded, no integer solution.
Current MIP best bound =  6.4524412708e+04 (gap is infinite)
Solution time =  352.70 sec.  Iterations = 5318775  Nodes = 172160 (77640)
Deterministic time = 75037.02 ticks  (212.75 ticks/sec)

CPLEX> CPLEX Error  1217: No solution exists.
No file written.
CPLEX> gap is infinite, so writing 0
Exporting results... 
